single_objective/SL-DABL/OP/problems/op/OPLib-master/instances/gen3/eil51-gen3-50.oplib
NAME : eil51
COMMENT : 51-city problem (Christofides/Eilon)
TYPE : OP
DIMENSION : 51
COST_LIMIT : 213
EDGE_WEIGHT_TYPE : EUC_2D
NODE_COORD_SECTION
1 37 52
2 49 49
3 52 64
4 20 26
5 40 30
6 21 47
7 17 63
8 31 62
9 52 33
10 51 21
11 42 41
12 31 32
13 5 25
14 12 42
15 36 16
16 52 41
17 27 23
18 17 33
19 13 13
20 57 58
21 62 42
22 42 57
23 16 57
24 8 52
25 7 38
26 27 68
27 30 48
28 43 67
29 58 48
30 58 27
31 37 69
32 38 46
33 46 10
34 61 33
35 62 63
36 63 69
37 32 22
38 45 35
39 59 15
40 5 6
41 10 17
42 21 10
43 5 64
44 30 15
45 39 10
46 32 39
47 25 32
48 25 55
49 48 28
50 56 37
51 30 40
NODE_SCORE_SECTION
1 0
2 22
3 34
4 55
5 39
6 31
7 41
8 22
9 43
10 61
11 22
12 38
13 75
14 48
15 64
16 34
17 55
18 50
19 82
20 38
21 48
22 13
23 39
24 52
25 59
26 34
27 15
28 29
29 38
30 59
31 31
32 11
33 77
34 55
35 48
36 55
37 54
38 34
39 77
40 100
41 78
42 80
43 61
44 68
45 75
46 25
47 41
48 22
49 46
50 43
51 25
DEPOT_SECTION
1
-1
EOF
