single_objective/SL-DABL/OP/problems/op/OPLib-master/solutions/ea4op/gen3/eil51-gen3-50.sol
NAME : eil51
TYPE : OP
DIMENSION : 51
COST_LIMIT : 213
ROUTE_NODES : 27
ROUTE_SCORE : 1398
ROUTE_COST : 213
NODE_SEQUENCE_SECTION
1
32
11
38
49
9
50
34
30
10
33
45
15
37
17
44
42
19
41
13
25
14
18
4
47
12
46
-1
DEPOT_SECTION
1
-1
EOF
